p cnf 95 321
c p weight 38 -1 0
c p weight -38 1 0
c p weight 40 6.12323399573676603586882014729198302312846062338790031898128063403419218957424163818359375E-17 0
c p weight -40 1 0
c p weight 41 1 0
c p weight -41 1 0
c p weight 42 -1 0
c p weight -42 1 0
c p weight 44 -1 0
c p weight -44 1 0
c p weight 47 -1 0
c p weight -47 1 0
c p weight 50 -1 0
c p weight -50 1 0
c p weight 53 -1 0
c p weight -53 1 0
c p weight 56 -1 0
c p weight -56 1 0
c p weight 59 -1 0
c p weight -59 1 0
c p weight 62 -1 0
c p weight -62 1 0
c p weight 65 -1 0
c p weight -65 1 0
c p weight 68 -1 0
c p weight -68 1 0
c p weight 71 -1 0
c p weight -71 1 0
c p weight 74 -1 0
c p weight -74 1 0
c p weight 77 -1 0
c p weight -77 1 0
c p weight 80 -1 0
c p weight -80 1 0
c p weight 83 -1 0
c p weight -83 1 0
c p weight 86 -1 0
c p weight -86 1 0
c p weight 89 -1 0
c p weight -89 1 0
c p weight 92 -1 0
c p weight -92 1 0
c p weight 95 -1 0
c p weight -95 1 0
-35 0
-33 0
-31 0
-29 0
-27 0
-25 0
-23 0
-21 0
-19 0
-17 0
-15 0
-13 0
-11 0
-9 0
-7 0
-5 0
-3 0
-1 0
37 35 -36 0
37 -35 36 0
-37 35 36 0
-37 -35 -36 0
-38 35 0
-38 36 0
38 -35 -36 0
39 -35 37 0
-39 35 37 0
-40 37 0
39 -40 -35 0
-39 -40 35 0
39 40 35 -37 0
-39 40 -35 -37 0
-41 37 0
39 -41 35 0
-39 -41 -35 0
39 41 -35 -37 0
-39 41 35 -37 0
-42 39 0
-42 37 0
-42 -35 0
42 -39 35 -37 0
43 39 -37 0
43 -39 37 0
-43 39 37 0
-43 -39 -37 0
-44 39 0
-44 37 0
44 -39 -37 0
45 39 -33 0
45 -39 33 0
-45 39 33 0
-45 -39 -33 0
46 43 -34 0
46 -43 34 0
-46 43 34 0
-46 -43 -34 0
-47 39 0
-47 34 0
-47 33 -43 0
-47 -33 43 0
47 -39 33 43 -34 0
47 -39 -33 -43 -34 0
48 45 -31 0
48 -45 31 0
-48 45 31 0
-48 -45 -31 0
49 34 -32 0
49 -34 32 0
-49 34 32 0
-49 -34 -32 0
-50 45 0
-50 32 0
-50 31 -34 0
-50 -31 34 0
50 -45 31 34 -32 0
50 -45 -31 -34 -32 0
51 48 -29 0
51 -48 29 0
-51 48 29 0
-51 -48 -29 0
52 32 -30 0
52 -32 30 0
-52 32 30 0
-52 -32 -30 0
-53 48 0
-53 30 0
-53 29 -32 0
-53 -29 32 0
53 -48 29 32 -30 0
53 -48 -29 -32 -30 0
54 51 -27 0
54 -51 27 0
-54 51 27 0
-54 -51 -27 0
55 30 -28 0
55 -30 28 0
-55 30 28 0
-55 -30 -28 0
-56 51 0
-56 28 0
-56 27 -30 0
-56 -27 30 0
56 -51 27 30 -28 0
56 -51 -27 -30 -28 0
57 54 -25 0
57 -54 25 0
-57 54 25 0
-57 -54 -25 0
58 28 -26 0
58 -28 26 0
-58 28 26 0
-58 -28 -26 0
-59 54 0
-59 26 0
-59 25 -28 0
-59 -25 28 0
59 -54 25 28 -26 0
59 -54 -25 -28 -26 0
60 57 -23 0
60 -57 23 0
-60 57 23 0
-60 -57 -23 0
61 26 -24 0
61 -26 24 0
-61 26 24 0
-61 -26 -24 0
-62 57 0
-62 24 0
-62 23 -26 0
-62 -23 26 0
62 -57 23 26 -24 0
62 -57 -23 -26 -24 0
63 60 -21 0
63 -60 21 0
-63 60 21 0
-63 -60 -21 0
64 24 -22 0
64 -24 22 0
-64 24 22 0
-64 -24 -22 0
-65 60 0
-65 22 0
-65 21 -24 0
-65 -21 24 0
65 -60 21 24 -22 0
65 -60 -21 -24 -22 0
66 63 -19 0
66 -63 19 0
-66 63 19 0
-66 -63 -19 0
67 22 -20 0
67 -22 20 0
-67 22 20 0
-67 -22 -20 0
-68 63 0
-68 20 0
-68 19 -22 0
-68 -19 22 0
68 -63 19 22 -20 0
68 -63 -19 -22 -20 0
69 66 -17 0
69 -66 17 0
-69 66 17 0
-69 -66 -17 0
70 20 -18 0
70 -20 18 0
-70 20 18 0
-70 -20 -18 0
-71 66 0
-71 18 0
-71 17 -20 0
-71 -17 20 0
71 -66 17 20 -18 0
71 -66 -17 -20 -18 0
72 69 -15 0
72 -69 15 0
-72 69 15 0
-72 -69 -15 0
73 18 -16 0
73 -18 16 0
-73 18 16 0
-73 -18 -16 0
-74 69 0
-74 16 0
-74 15 -18 0
-74 -15 18 0
74 -69 15 18 -16 0
74 -69 -15 -18 -16 0
75 72 -13 0
75 -72 13 0
-75 72 13 0
-75 -72 -13 0
76 16 -14 0
76 -16 14 0
-76 16 14 0
-76 -16 -14 0
-77 72 0
-77 14 0
-77 13 -16 0
-77 -13 16 0
77 -72 13 16 -14 0
77 -72 -13 -16 -14 0
78 75 -11 0
78 -75 11 0
-78 75 11 0
-78 -75 -11 0
79 14 -12 0
79 -14 12 0
-79 14 12 0
-79 -14 -12 0
-80 75 0
-80 12 0
-80 11 -14 0
-80 -11 14 0
80 -75 11 14 -12 0
80 -75 -11 -14 -12 0
81 78 -9 0
81 -78 9 0
-81 78 9 0
-81 -78 -9 0
82 12 -10 0
82 -12 10 0
-82 12 10 0
-82 -12 -10 0
-83 78 0
-83 10 0
-83 9 -12 0
-83 -9 12 0
83 -78 9 12 -10 0
83 -78 -9 -12 -10 0
84 81 -7 0
84 -81 7 0
-84 81 7 0
-84 -81 -7 0
85 10 -8 0
85 -10 8 0
-85 10 8 0
-85 -10 -8 0
-86 81 0
-86 8 0
-86 7 -10 0
-86 -7 10 0
86 -81 7 10 -8 0
86 -81 -7 -10 -8 0
87 84 -5 0
87 -84 5 0
-87 84 5 0
-87 -84 -5 0
88 8 -6 0
88 -8 6 0
-88 8 6 0
-88 -8 -6 0
-89 84 0
-89 6 0
-89 5 -8 0
-89 -5 8 0
89 -84 5 8 -6 0
89 -84 -5 -8 -6 0
90 87 -3 0
90 -87 3 0
-90 87 3 0
-90 -87 -3 0
91 6 -4 0
91 -6 4 0
-91 6 4 0
-91 -6 -4 0
-92 87 0
-92 4 0
-92 3 -6 0
-92 -3 6 0
92 -87 3 6 -4 0
92 -87 -3 -6 -4 0
93 90 -1 0
93 -90 1 0
-93 90 1 0
-93 -90 -1 0
94 4 -2 0
94 -4 2 0
-94 4 2 0
-94 -4 -2 0
-95 90 0
-95 2 0
-95 1 -4 0
-95 -1 4 0
95 -90 1 4 -2 0
95 -90 -1 -4 -2 0
-93 0
-90 0
-94 0
-87 0
-91 0
-84 0
-88 0
-81 0
-85 0
-78 0
-82 0
-75 0
-79 0
-72 0
-76 0
-69 0
-73 0
-66 0
-70 0
-63 0
-67 0
-60 0
-64 0
-57 0
-61 0
-54 0
-58 0
-51 0
-55 0
-48 0
-52 0
-45 0
-49 0
-39 0
-46 0
